c Random generated cnf formula, satisfiable: true
p cnf 10 50
-6 1 -4 0
8 5 2 0
5 10 1 0
-4 -8 -9 0
1 5 2 0
3 -6 -9 0
2 5 1 0
2 8 -5 0
8 5 1 0
-9 -5 -1 0
-2 10 -8 0
3 -6 1 0
-7 10 1 0
-6 -5 3 0
4 8 7 0
1 2 7 0
6 9 3 0
-8 6 10 0
-10 6 3 0
5 -4 3 0
7 -6 1 0
-8 10 -5 0
6 3 -1 0
-4 5 10 0
-1 8 -3 0
2 -7 3 0
4 -3 -9 0
10 5 -4 0
-9 8 5 0
8 6 -2 0
9 5 10 0
9 -5 -8 0
6 -4 3 0
7 -3 9 0
-5 -6 10 0
8 -1 -7 0
2 9 -1 0
2 -5 3 0
-4 5 10 0
9 1 -7 0
-3 2 8 0
10 -2 3 0
8 5 10 0
-7 -6 10 0
3 -2 9 0
-4 -2 3 0
5 2 -7 0
-5 -10 -8 0
10 4 5 0
10 -9 -8 0
